50

100 15 301
99 35 347
97 27 300
97 43 354
96 13 306
96 26 294
95 44 327
92 15 340
92 28 321
90 37 319
90 40 272
88 34 281
87 15 346
87 18 337
85 4 270
84 20 290
83 26 331
82 8 294
81 3 337
79 30 319
74 27 253
68 22 304
68 12 291
63 23 338
59 20 352
58 19 265
56 16 276
55 11 275
55 22 245
51 21 353
50 24 334
49 22 314
49 5 294
49 19 359
47 19 177
44 12 350
44 5 142
42 14 183
39 18 342
37 7 219
37 1 144
34 14 356
34 16 202
34 16 346
33 17 315
33 10 163
31 13 246
30 9 139
30 6 205
30 15 315
